Maximize
 obj: 0 X1
Subject To
 c1:
  + 1 X48 + 1 X60 + 1 X32 + 1 X49 + 1 X52 + 1 X22 + 1 X62 + 1 X92
  + 1 X98 + 1 X82 + 1 X55 + 1 X59 + 1 X79
  <= 1
 c2:
  + 1 X70 + 1 X20 + 1 X16 + 1 X66 + 1 X43 + 1 X92 + 1 X27 + 1 X79
  + 1 X100 + 1 X42 + 1 X26 + 1 X24 + 1 X94 + 1 X88
  <= 1
 c3:
  + 1 X93 + 1 X10 + 1 X21 + 1 X60 + 1 X98 + 1 X73 + 1 X41 + 1 X11
  + 1 X32 + 1 X66 + 1 X19 + 1 X68
  <= 1
 c4:
  + 1 X19 + 1 X57 + 1 X89 + 1 X7 + 1 X34 + 1 X93 + 1 X81
  <= 1
 c5:
  + 1 X84 + 1 X37 + 1 X41 + 1 X92 + 1 X89 + 1 X64 + 1 X13 + 1 X49
  + 1 X32 + 1 X60 + 1 X43 + 1 X58 + 1 X71 + 1 X65 + 1 X35 + 1 X4
  <= 1
 c6:
  + 1 X15 + 1 X54 + 1 X90 + 1 X75 + 1 X6 + 1 X10 + 1 X21 + 1 X22
  + 1 X68 + 1 X27 + 1 X88 + 1 X76 + 1 X48 + 1 X51 + 1 X36 + 1 X81
  + 1 X47 + 1 X38 + 1 X62 + 1 X39
  <= 1
 c7:
  + 1 X77 + 1 X4 + 1 X91 + 1 X72 + 1 X16 + 1 X97 + 1 X34 + 1 X85
  + 1 X49 + 1 X2
  <= 1
 c8:
  + 1 X92 + 1 X82 + 1 X45 + 1 X46 + 1 X40
  <= 1
 c9:
  + 1 X81 + 1 X53 + 1 X45
  <= 1
 c10:
  + 1 X60 + 1 X80 + 1 X22 + 1 X20 + 1 X92 + 1 X59 + 1 X1 + 1 X79
  + 1 X18 + 1 X90
  <= 1
 c11:
  + 1 X70 + 1 X96 + 1 X53 + 1 X31 + 1 X4 + 1 X37
  <= 1
 c12:
  + 1 X28 + 1 X43 + 1 X1 + 1 X89 + 1 X92 + 1 X62 + 1 X24 + 1 X21
  + 1 X55 + 1 X4 + 1 X60 + 1 X85 + 1 X83 + 1 X63 + 1 X99 + 1 X100
  + 1 X3 + 1 X59 + 1 X8 + 1 X81
  <= 1
 c13:
  + 1 X17 + 1 X22 + 1 X70 + 1 X44 + 1 X81 + 1 X28 + 1 X14 + 1 X92
  + 1 X90 + 1 X5 + 1 X74 + 1 X31 + 1 X100 + 1 X35 + 1 X34 + 1 X25
  + 1 X30
  <= 1
 c14:
  + 1 X33 + 1 X4 + 1 X29 + 1 X76 + 1 X66 + 1 X34 + 1 X84 + 1 X85
  + 1 X20 + 1 X93 + 1 X79 + 1 X16 + 1 X86 + 1 X57 + 1 X58 + 1 X73
  + 1 X62 + 1 X65
  <= 1
 c15:
  + 1 X58 + 1 X9 + 1 X38 + 1 X31 + 1 X37 + 1 X57 + 1 X91 + 1 X68
  + 1 X43 + 1 X15 + 1 X32 + 1 X30 + 1 X27 + 1 X96 + 1 X7 + 1 X35
  <= 1
 c16:
  + 1 X43 + 1 X48 + 1 X83 + 1 X15 + 1 X66 + 1 X5 + 1 X62 + 1 X94
  + 1 X63 + 1 X2 + 1 X100 + 1 X98 + 1 X24
  <= 1
 c17:
  + 1 X97 + 1 X70 + 1 X23 + 1 X95 + 1 X27 + 1 X16 + 1 X8 + 1 X12
  + 1 X76 + 1 X66 + 1 X100 + 1 X2 + 1 X43 + 1 X6 + 1 X83 + 1 X58
  + 1 X65
  <= 1
 c18:
  + 1 X63 + 1 X31 + 1 X72 + 1 X3 + 1 X80 + 1 X20 + 1 X23 + 1 X48
  + 1 X61 + 1 X7 + 1 X13 + 1 X78 + 1 X57 + 1 X88 + 1 X8 + 1 X55
  + 1 X76 + 1 X6 + 1 X93
  <= 1
 c19:
  + 1 X19 + 1 X10 + 1 X82 + 1 X39 + 1 X84 + 1 X38 + 1 X41 + 1 X52
  + 1 X79 + 1 X40 + 1 X3 + 1 X1 + 1 X50 + 1 X57 + 1 X80 + 1 X46
  + 1 X11 + 1 X32 + 1 X4 + 1 X7
  <= 1
 c20:
  + 1 X66 + 1 X96
  <= 1
 obj1:
  + 25 X1 + 70 X2 + 48 X3 + 69 X4 + 52 X5 + 38 X6 + 17 X7 + 32 X8
  + 40 X9 + 74 X10 + 100 X11 + 84 X12 + 53 X13 + 58 X14 + 31 X15 + 46 X16
  + 38 X17 + 2 X18 + 68 X19 + 100 X20 + 39 X21 + 88 X22 + 68 X23 + 36 X24
  + 73 X25 + 12 X26 + 89 X27 + 91 X28 + 15 X29 + 2 X30 + 90 X31 + 40 X32
  + 90 X33 + 43 X34 + 61 X35 + 24 X36 + 98 X37 + 81 X38 + 95 X39 + 46 X40
  + 6 X41 + 22 X42 + 6 X43 + 95 X44 + 19 X45 + 38 X46 + 9 X47 + 75 X48
  + 71 X49 + 72 X50 + 37 X51 + 76 X52 + 70 X53 + 26 X54 + 95 X55 + 23 X56
  + 97 X57 + 70 X58 + 31 X59 + 100 X60 + 100 X61 + 67 X62 + 90 X63 + 50 X64
  + 16 X65 + 26 X66 + 73 X67 + 71 X68 + 94 X69 + 12 X70 + 25 X71 + 79 X72
  + 61 X73 + 49 X74 + 35 X75 + 79 X76 + 95 X77 + 50 X78 + 79 X79 + 34 X80
  + 15 X81 + 52 X82 + 78 X83 + 12 X84 + 76 X85 + 72 X86 + 61 X87 + 43 X88
  + 95 X89 + 90 X90 + 1 X91 + 44 X92 + 51 X93 + 95 X94 + 63 X95 + 83 X96
  + 97 X97 + 43 X98 + 64 X99 + 34 X100
  >= 1
 obj2:
  + 55 X1 + 70 X2 + 23 X3 + 71 X4 + 1 X5 + 23 X6 + 51 X7 + 89 X8
  + 97 X9 + 78 X10 + 66 X11 + 48 X12 + 54 X13 + 25 X14 + 73 X15 + 68 X16
  + 8 X17 + 2 X18 + 17 X19 + 51 X20 + 18 X21 + 87 X22 + 47 X23 + 95 X24
  + 43 X25 + 7 X26 + 4 X27 + 13 X28 + 67 X29 + 41 X30 + 62 X31 + 44 X32
  + 23 X33 + 45 X34 + 48 X35 + 89 X36 + 55 X37 + 86 X38 + 57 X39 + 85 X40
  + 33 X41 + 48 X42 + 91 X43 + 82 X44 + 48 X45 + 6 X46 + 69 X47 + 86 X48
  + 87 X49 + 94 X50 + 73 X51 + 39 X52 + 85 X53 + 8 X54 + 94 X55 + 52 X56
  + 91 X57 + 85 X58 + 10 X59 + 1 X60 + 16 X61 + 64 X62 + 47 X63 + 44 X64
  + 39 X65 + 91 X66 + 46 X67 + 65 X68 + 91 X69 + 92 X70 + 61 X71 + 13 X72
  + 8 X73 + 6 X74 + 55 X75 + 34 X76 + 20 X77 + 32 X78 + 10 X79 + 7 X80
  + 33 X81 + 98 X82 + 60 X83 + 6 X84 + 1 X85 + 15 X86 + 10 X87 + 76 X88
  + 80 X89 + 88 X90 + 38 X91 + 31 X92 + 81 X93 + 3 X94 + 75 X95 + 92 X96
  + 15 X97 + 48 X98 + 75 X99 + 17 X100
  >= 2
 obj3:
  + 80 X1 + 97 X2 + 24 X3 + 100 X4 + 99 X5 + 3 X6 + 81 X7 + 42 X8
  + 30 X9 + 23 X10 + 72 X11 + 2 X12 + 71 X13 + 73 X14 + 21 X15 + 96 X16
  + 92 X17 + 42 X18 + 98 X19 + 43 X20 + 98 X21 + 50 X22 + 32 X23 + 53 X24
  + 40 X25 + 64 X26 + 98 X27 + 32 X28 + 81 X29 + 58 X30 + 51 X31 + 64 X32
  + 20 X33 + 23 X34 + 86 X35 + 82 X36 + 11 X37 + 63 X38 + 1 X39 + 2 X40
  + 42 X41 + 41 X42 + 70 X43 + 48 X44 + 31 X45 + 37 X46 + 47 X47 + 8 X48
  + 30 X49 + 7 X50 + 77 X51 + 66 X52 + 30 X53 + 75 X54 + 58 X55 + 56 X56
  + 88 X57 + 16 X58 + 89 X59 + 36 X60 + 88 X61 + 18 X62 + 62 X63 + 86 X64
  + 11 X65 + 72 X66 + 64 X67 + 93 X68 + 14 X69 + 23 X70 + 71 X71 + 28 X72
  + 3 X73 + 81 X74 + 97 X75 + 65 X76 + 58 X77 + 41 X78 + 59 X79 + 1 X80
  + 42 X81 + 69 X82 + 1 X83 + 4 X84 + 56 X85 + 83 X86 + 35 X87 + 89 X88
  + 41 X89 + 17 X90 + 67 X91 + 5 X92 + 37 X93 + 66 X94 + 47 X95 + 69 X96
  + 25 X97 + 96 X98 + 32 X99 + 70 X100
  >= 3
Binary
 X1
 X2
 X3
 X4
 X5
 X6
 X7
 X8
 X9
 X10
 X11
 X12
 X13
 X14
 X15
 X16
 X17
 X18
 X19
 X20
 X21
 X22
 X23
 X24
 X25
 X26
 X27
 X28
 X29
 X30
 X31
 X32
 X33
 X34
 X35
 X36
 X37
 X38
 X39
 X40
 X41
 X42
 X43
 X44
 X45
 X46
 X47
 X48
 X49
 X50
 X51
 X52
 X53
 X54
 X55
 X56
 X57
 X58
 X59
 X60
 X61
 X62
 X63
 X64
 X65
 X66
 X67
 X68
 X69
 X70
 X71
 X72
 X73
 X74
 X75
 X76
 X77
 X78
 X79
 X80
 X81
 X82
 X83
 X84
 X85
 X86
 X87
 X88
 X89
 X90
 X91
 X92
 X93
 X94
 X95
 X96
 X97
 X98
 X99
 X100
End
